c Standarized MaxSat Instance
c{
c "sha1sum": "c88e1615c929e89ef36108a23bc19c0627c2480e",
c "nvars": 42,
c "ncls": 474,
c "nhards": 0,
c "nhard_len_stats":
c    { "min": 0, "max": 0, "ave": 0.00,
c      "stddev": 0.00 },
c "nsofts": 474,
c "nsoft_len_stats":
c    { "min": 2, "max": 2, "ave": 2.00,
c      "stddev": 0.00 },
c "nsoft_wts": 10,
c "soft_wt_stats":
c    { "min": 1, "max": 10, "ave": 5.74,
c      "stddev": 2.95 }
c}
c------------------------------------------------------------
c File  p_hat500-1.clq
c
c Source: P. Soriano and M. Gendreau at  patrick@crt.umontreal.ca
c
c Reference: p-hat graphs are generated with the p-hat generator
c 	      which is a generalization of the classical uniform
c 	      random graph generator.
c 	      Graphs generated with p-hat have wider node degree spread
c 	      and larger cliques than uniform graphs.
c
c NOTE: September 23, 1993 Corrected corrupted file at DIMACS.
c
c
c Generation parameters: 
c 	n =    500 a =  0.00  b =  0.50  Expected density =  0.25
c	Seed =      12513       Real density =  0.253
c
p wcnf 42 474 2723
9 1 5 0
9 -1 -5 0
4 1 6 0
4 -1 -6 0
8 1 8 0
8 -1 -8 0
8 1 12 0
8 -1 -12 0
10 1 14 0
10 -1 -14 0
2 1 17 0
2 -1 -17 0
4 1 18 0
4 -1 -18 0
8 1 20 0
8 -1 -20 0
3 1 24 0
3 -1 -24 0
6 1 32 0
6 -1 -32 0
5 1 34 0
5 -1 -34 0
7 1 37 0
7 -1 -37 0
4 1 38 0
4 -1 -38 0
6 1 39 0
6 -1 -39 0
10 1 41 0
10 -1 -41 0
10 2 5 0
10 -2 -5 0
7 2 8 0
7 -2 -8 0
8 2 12 0
8 -2 -12 0
2 2 22 0
2 -2 -22 0
7 2 24 0
7 -2 -24 0
1 2 27 0
1 -2 -27 0
3 2 28 0
3 -2 -28 0
2 2 31 0
2 -2 -31 0
9 2 34 0
9 -2 -34 0
2 2 38 0
2 -2 -38 0
5 3 8 0
5 -3 -8 0
2 3 9 0
2 -3 -9 0
2 3 15 0
2 -3 -15 0
10 3 17 0
10 -3 -17 0
3 3 30 0
3 -3 -30 0
6 3 40 0
6 -3 -40 0
9 3 41 0
9 -3 -41 0
7 4 6 0
7 -4 -6 0
3 4 7 0
3 -4 -7 0
7 4 8 0
7 -4 -8 0
6 4 11 0
6 -4 -11 0
5 4 13 0
5 -4 -13 0
10 4 16 0
10 -4 -16 0
3 4 17 0
3 -4 -17 0
8 4 22 0
8 -4 -22 0
6 4 23 0
6 -4 -23 0
8 4 25 0
8 -4 -25 0
5 4 29 0
5 -4 -29 0
9 4 30 0
9 -4 -30 0
3 4 34 0
3 -4 -34 0
4 4 36 0
4 -4 -36 0
9 4 39 0
9 -4 -39 0
10 4 40 0
10 -4 -40 0
1 4 42 0
1 -4 -42 0
10 5 6 0
10 -5 -6 0
6 5 13 0
6 -5 -13 0
1 5 19 0
1 -5 -19 0
2 5 20 0
2 -5 -20 0
7 5 34 0
7 -5 -34 0
9 5 38 0
9 -5 -38 0
4 5 41 0
4 -5 -41 0
1 6 7 0
1 -6 -7 0
1 6 12 0
1 -6 -12 0
5 6 13 0
5 -6 -13 0
1 6 16 0
1 -6 -16 0
3 6 26 0
3 -6 -26 0
10 6 30 0
10 -6 -30 0
10 6 32 0
10 -6 -32 0
9 6 34 0
9 -6 -34 0
3 6 37 0
3 -6 -37 0
6 6 38 0
6 -6 -38 0
4 7 17 0
4 -7 -17 0
8 7 18 0
8 -7 -18 0
6 7 20 0
6 -7 -20 0
7 7 23 0
7 -7 -23 0
6 7 30 0
6 -7 -30 0
1 7 34 0
1 -7 -34 0
5 8 11 0
5 -8 -11 0
10 8 16 0
10 -8 -16 0
10 8 18 0
10 -8 -18 0
8 8 22 0
8 -8 -22 0
3 8 24 0
3 -8 -24 0
8 8 26 0
8 -8 -26 0
7 8 28 0
7 -8 -28 0
4 8 31 0
4 -8 -31 0
7 8 32 0
7 -8 -32 0
2 8 34 0
2 -8 -34 0
5 8 36 0
5 -8 -36 0
9 8 39 0
9 -8 -39 0
9 8 40 0
9 -8 -40 0
4 9 23 0
4 -9 -23 0
3 9 25 0
3 -9 -25 0
9 9 26 0
9 -9 -26 0
4 9 32 0
4 -9 -32 0
7 9 34 0
7 -9 -34 0
10 9 37 0
10 -9 -37 0
6 9 40 0
6 -9 -40 0
7 9 41 0
7 -9 -41 0
9 10 12 0
9 -10 -12 0
5 10 24 0
5 -10 -24 0
10 10 25 0
10 -10 -25 0
4 10 27 0
4 -10 -27 0
9 10 31 0
9 -10 -31 0
7 10 34 0
7 -10 -34 0
10 10 37 0
10 -10 -37 0
5 10 38 0
5 -10 -38 0
3 10 41 0
3 -10 -41 0
10 10 42 0
10 -10 -42 0
10 11 12 0
10 -11 -12 0
2 11 13 0
2 -11 -13 0
9 11 16 0
9 -11 -16 0
7 11 19 0
7 -11 -19 0
5 11 24 0
5 -11 -24 0
7 11 28 0
7 -11 -28 0
3 11 29 0
3 -11 -29 0
8 11 40 0
8 -11 -40 0
4 11 41 0
4 -11 -41 0
5 11 42 0
5 -11 -42 0
3 12 16 0
3 -12 -16 0
2 12 25 0
2 -12 -25 0
3 12 30 0
3 -12 -30 0
6 12 35 0
6 -12 -35 0
5 12 36 0
5 -12 -36 0
2 12 40 0
2 -12 -40 0
10 12 41 0
10 -12 -41 0
2 13 14 0
2 -13 -14 0
2 13 16 0
2 -13 -16 0
5 13 18 0
5 -13 -18 0
8 13 28 0
8 -13 -28 0
10 13 30 0
10 -13 -30 0
10 13 39 0
10 -13 -39 0
7 14 24 0
7 -14 -24 0
4 14 37 0
4 -14 -37 0
8 15 16 0
8 -15 -16 0
4 15 22 0
4 -15 -22 0
3 15 25 0
3 -15 -25 0
3 15 26 0
3 -15 -26 0
6 15 29 0
6 -15 -29 0
3 15 30 0
3 -15 -30 0
2 15 32 0
2 -15 -32 0
8 15 33 0
8 -15 -33 0
2 15 34 0
2 -15 -34 0
8 15 35 0
8 -15 -35 0
2 15 37 0
2 -15 -37 0
8 15 40 0
8 -15 -40 0
1 15 41 0
1 -15 -41 0
10 16 17 0
10 -16 -17 0
1 16 24 0
1 -16 -24 0
6 16 25 0
6 -16 -25 0
2 16 27 0
2 -16 -27 0
3 16 28 0
3 -16 -28 0
8 16 34 0
8 -16 -34 0
8 16 38 0
8 -16 -38 0
7 16 39 0
7 -16 -39 0
10 16 41 0
10 -16 -41 0
7 17 23 0
7 -17 -23 0
8 17 24 0
8 -17 -24 0
1 17 29 0
1 -17 -29 0
2 17 30 0
2 -17 -30 0
6 17 35 0
6 -17 -35 0
1 17 37 0
1 -17 -37 0
1 17 38 0
1 -17 -38 0
3 17 39 0
3 -17 -39 0
5 18 20 0
5 -18 -20 0
9 18 22 0
9 -18 -22 0
6 18 23 0
6 -18 -23 0
8 18 33 0
8 -18 -33 0
1 18 38 0
1 -18 -38 0
2 19 20 0
2 -19 -20 0
10 19 24 0
10 -19 -24 0
3 19 29 0
3 -19 -29 0
9 19 31 0
9 -19 -31 0
2 19 33 0
2 -19 -33 0
10 19 35 0
10 -19 -35 0
1 19 36 0
1 -19 -36 0
9 19 40 0
9 -19 -40 0
1 20 22 0
1 -20 -22 0
1 20 31 0
1 -20 -31 0
10 20 34 0
10 -20 -34 0
6 20 37 0
6 -20 -37 0
2 20 38 0
2 -20 -38 0
2 20 41 0
2 -20 -41 0
4 21 22 0
4 -21 -22 0
10 21 25 0
10 -21 -25 0
9 21 30 0
9 -21 -30 0
4 21 39 0
4 -21 -39 0
6 21 42 0
6 -21 -42 0
6 22 25 0
6 -22 -25 0
5 22 27 0
5 -22 -27 0
7 22 33 0
7 -22 -33 0
1 22 35 0
1 -22 -35 0
6 22 40 0
6 -22 -40 0
8 23 26 0
8 -23 -26 0
4 23 38 0
4 -23 -38 0
10 23 41 0
10 -23 -41 0
6 24 26 0
6 -24 -26 0
9 24 30 0
9 -24 -30 0
8 24 31 0
8 -24 -31 0
7 24 34 0
7 -24 -34 0
1 24 36 0
1 -24 -36 0
8 24 40 0
8 -24 -40 0
9 24 41 0
9 -24 -41 0
10 25 27 0
10 -25 -27 0
9 25 28 0
9 -25 -28 0
9 25 33 0
9 -25 -33 0
10 25 34 0
10 -25 -34 0
8 26 38 0
8 -26 -38 0
10 26 41 0
10 -26 -41 0
10 27 28 0
10 -27 -28 0
7 27 32 0
7 -27 -32 0
5 28 33 0
5 -28 -33 0
2 28 34 0
2 -28 -34 0
9 28 37 0
9 -28 -37 0
9 28 38 0
9 -28 -38 0
1 28 41 0
1 -28 -41 0
7 28 42 0
7 -28 -42 0
3 29 32 0
3 -29 -32 0
7 29 41 0
7 -29 -41 0
3 29 42 0
3 -29 -42 0
8 30 31 0
8 -30 -31 0
4 30 32 0
4 -30 -32 0
4 30 36 0
4 -30 -36 0
3 30 38 0
3 -30 -38 0
1 30 39 0
1 -30 -39 0
7 30 40 0
7 -30 -40 0
3 30 41 0
3 -30 -41 0
7 30 42 0
7 -30 -42 0
6 31 37 0
6 -31 -37 0
10 32 38 0
10 -32 -38 0
3 32 40 0
3 -32 -40 0
6 33 34 0
6 -33 -34 0
8 33 37 0
8 -33 -37 0
2 33 38 0
2 -33 -38 0
5 33 40 0
5 -33 -40 0
6 33 41 0
6 -33 -41 0
10 34 36 0
10 -34 -36 0
5 34 37 0
5 -34 -37 0
4 35 40 0
4 -35 -40 0
9 36 39 0
9 -36 -39 0
5 36 40 0
5 -36 -40 0
1 37 38 0
1 -37 -38 0
4 40 41 0
4 -40 -41 0
